s td 99 12 116
b 1 11 14 16
b 2 12 13 15
b 3 5 13 15
b 4 6 14 16
b 5 5 15 115
b 6 6 16 116
b 7 73 76 78
b 8 74 75 77
b 9 31 75 77
b 10 32 76 78
b 11 21 31 77
b 12 22 32 78
b 13 79 82 84
b 14 80 81 83
b 15 59 81 83
b 16 60 82 84
b 17 25 59 83
b 18 26 60 84
b 19 101 104 106
b 20 102 103 105
b 21 103 105 113
b 22 104 106 114
b 23 71 105 113
b 24 72 106 114
b 25 1 5 6 9 10 51 52 68 71 95 97 114
b 26 4 5 6 9 10 97
b 27 2 4 5 10 97
b 28 2 4 7 97
b 29 1 5 6 9 51 52 68 71 95 97 98 114
b 30 1 3 5 9 98
b 31 1 3 8 98
b 32 5 6 51 52 68 71 95 97 98 114 116
b 33 5 51 52 68 71 95 97 98 114 115 116
b 34 51 52 68 71 95 97 98 113 114 115 116
b 35 51 52 68 95 97 98 100 113 114 115 116
b 36 51 68 95 97 98 99 100 113 114 115 116
b 37 68 95 96 97 98 99 100 113 114 115 116
b 38 94 95 96 97 98 99 100 113 114 115 116
b 39 85 94 96 98 100
b 40 88 94 95 97 100
b 41 90 94 95 98 99
b 42 91 94 96 97 99
b 43 94 107 113 114 115 116
b 44 94 107 112 113 115
b 45 110 112 113 115
b 46 93 95 96 97 98 99 100 113 114 115 116
b 47 86 93 95 98 100
b 48 87 93 96 97 100
b 49 89 93 96 98 99
b 50 92 93 95 97 99
b 51 93 109 113 114 115 116
b 52 93 109 111 113 116
b 53 108 111 113 116
b 54 9 10 31 32 47 48 51 52 68 71 95 114
b 55 9 10 24 31 32 45 47 48 49 50 51 52
b 56 9 10 24 31 32 45 49 50 62
b 57 9 10 24 31 32 45 49 61 62
b 58 9 10 24 31 32 45 58 61 62
b 59 9 24 31 32 45 57 58 61 62
b 60 23 24 31 32 45 57 58 61 62
b 61 22 23 24 31 32 57 58 61 62
b 62 21 22 23 24 31 57 58 61 62
b 63 18 21 22 23 24 57 58 61 62
b 64 18 22 24 55 57 58 61 62
b 65 18 22 24 55 58 60 62
b 66 18 22 24 26 60
b 67 17 22 24 26
b 68 53 58 60 62
b 69 21 22 23 24 54 57 58 61 62
b 70 20 21 22 23 24 54 58 61
b 71 19 20 21 24 54 58 61
b 72 19 20 25 54 58 61
b 73 25 54 56 58 61
b 74 25 54 56 59
b 75 24 46 47 48 49 50 51 52
b 76 37 46 48 50 52
b 77 40 46 47 49 52
b 78 42 46 47 50 51
b 79 43 46 48 49 51
b 80 38 45 47 50 52
b 81 39 45 48 49 52
b 82 41 45 48 50 51
b 83 44 45 47 49 51
b 84 31 32 47 48 68 71 72 95 114
b 85 31 32 47 48 67 68 71 72 95
b 86 31 32 34 47 48 67 68 71 72
b 87 31 32 33 34 47 67 68 71 72
b 88 31 32 33 34 63 67 68 71 72
b 89 28 31 32 33 34 63 67 71
b 90 28 32 34 63 65 67 71
b 91 28 32 34 63 65 70
b 92 28 32 34 36 70
b 93 27 32 34 36
b 94 31 32 33 34 66 67 68 71 72
b 95 31 32 33 34 64 66 67 72
b 96 31 32 33 34 64 66 69
b 97 29 31 32 33 34 69
b 98 29 32 33 35 69
b 99 30 32 33 35
1 4
2 3
3 5
4 6
5 33
6 32
7 10
8 9
9 11
10 12
11 62
12 61
13 16
14 15
15 17
16 18
17 74
18 66
19 22
20 21
21 23
22 24
23 34
24 84
25 26
25 29
25 54
26 27
27 28
29 30
29 32
30 31
32 33
33 34
34 35
35 36
36 37
37 38
37 46
38 39
38 40
38 41
38 42
38 43
43 44
44 45
46 47
46 48
46 49
46 50
46 51
51 52
52 53
54 55
54 84
55 56
55 75
55 80
55 81
55 82
55 83
56 57
57 58
58 59
59 60
60 61
61 62
62 63
62 69
63 64
64 65
65 66
65 68
66 67
69 70
70 71
71 72
72 73
73 74
75 76
75 77
75 78
75 79
84 85
85 86
86 87
87 88
87 94
88 89
89 90
90 91
91 92
92 93
94 95
95 96
96 97
97 98
98 99
